500
200 200
1 140 236
2 140 371
3 140 421
4 140 418
5 139 453
6 139 76
7 139 107
8 138 246
9 138 56
10 138 896
11 138 756
12 138 141
13 138 834
14 138 351
15 137 107
16 136 239
17 136 413
18 136 63
19 136 269
20 136 561
21 136 484
22 136 827
23 136 780
24 135 288
25 135 239
26 134 324
27 134 261
28 134 560
29 132 780
30 132 343
31 132 10
32 132 749
33 132 254
34 132 817
35 132 325
36 131 237
37 131 481
38 131 923
39 131 999
40 131 724
41 131 878
42 130 727
43 130 254
44 130 31
45 129 739
46 129 792
47 129 383
48 129 297
49 128 202
50 127 682
51 127 749
52 126 788
53 126 486
54 126 380
55 126 444
56 126 256
57 126 111
58 126 419
59 125 411
60 125 500
61 125 949
62 125 235
63 125 616
64 125 878
65 125 760
66 125 328
67 125 981
68 125 981
69 124 646
70 124 113
71 124 535
72 124 76
73 124 413
74 123 324
75 123 803
76 123 344
77 122 537
78 122 148
79 122 875
80 121 50
81 121 38
82 121 716
83 120 644
84 119 225
85 119 319
86 119 584
87 119 68
88 119 85
89 119 804
90 118 866
91 118 195
92 118 878
93 118 540
94 117 452
95 117 77
96 117 102
97 116 732
98 116 169
99 116 632
100 116 599
101 116 609
102 116 463
103 115 587
104 115 289
105 115 163
106 114 836
107 113 562
108 113 544
109 113 573
110 112 330
111 112 989
112 111 679
113 111 371
114 111 527
115 111 243
116 111 146
117 110 345
118 110 574
119 110 37
120 110 567
121 109 939
122 109 917
123 109 749
124 109 738
125 109 994
126 108 629
127 108 747
128 108 344
129 108 603
130 108 6
131 107 635
132 107 714
133 106 586
134 106 588
135 105 37
136 105 178
137 105 347
138 105 781
139 105 484
140 104 116
141 104 986
142 104 855
143 104 510
144 104 209
145 104 644
146 104 889
147 104 878
148 104 929
149 104 775
150 104 845
151 103 281
152 103 948
153 103 82
154 102 686
155 102 777
156 102 180
157 102 39
158 101 676
159 100 899
160 100 727
161 100 793
162 100 832
163 100 775
164 99 696
165 99 853
166 99 167
167 99 906
168 99 116
169 99 296
170 99 798
171 99 501
172 99 497
173 98 125
174 98 101
175 98 652
176 98 590
177 98 200
178 97 482
179 97 278
180 97 220
181 96 828
182 96 687
183 96 794
184 96 927
185 96 530
186 95 712
187 95 643
188 95 883
189 95 782
190 95 802
191 95 77
192 94 456
193 94 173
194 94 966
195 94 923
196 94 120
197 93 238
198 93 202
199 92 324
200 92 961
201 92 591
202 92 779
203 92 137
204 92 115
205 92 939
206 91 670
207 91 146
208 90 32
209 90 221
210 90 310
211 90 805
212 90 296
213 89 59
214 89 630
215 89 992
216 89 51
217 89 128
218 89 86
219 89 501
220 89 158
221 88 181
222 88 82
223 87 761
224 87 121
225 87 410
226 86 632
227 86 688
228 86 938
229 86 462
230 86 388
231 86 192
232 85 320
233 85 63
234 85 489
235 85 906
236 85 594
237 85 671
238 84 919
239 84 38
240 84 291
241 84 948
242 84 899
243 83 584
244 83 928
245 83 955
246 82 41
247 82 696
248 82 314
249 82 591
250 82 434
251 81 59
252 81 216
253 81 496
254 81 774
255 81 469
256 80 885
257 80 332
258 80 992
259 80 302
260 80 937
261 80 105
262 80 401
263 79 720
264 79 381
265 78 238
266 78 926
267 78 580
268 78 188
269 78 210
270 78 275
271 77 970
272 77 673
273 77 74
274 77 516
275 77 719
276 77 528
277 77 171
278 76 550
279 76 253
280 76 438
281 76 537
282 76 943
283 76 730
284 75 24
285 75 699
286 75 945
287 75 114
288 74 367
289 74 45
290 74 135
291 74 773
292 74 936
293 74 257
294 74 138
295 73 563
296 72 683
297 72 242
298 72 653
299 72 321
300 71 135
301 71 56
302 71 5
303 71 472
304 71 560
305 71 943
306 71 218
307 71 998
308 69 3
309 69 943
310 69 538
311 69 161
312 68 335
313 68 752
314 68 180
315 68 685
316 67 623
317 66 427
318 66 25
319 66 427
320 66 320
321 66 440
322 66 676
323 65 810
324 65 10
325 65 835
326 65 867
327 65 358
328 64 299
329 64 66
330 64 29
331 64 774
332 64 118
333 63 682
334 63 910
335 63 93
336 63 197
337 63 627
338 63 661
339 63 917
340 62 56
341 62 611
342 62 370
343 61 427
344 61 818
345 60 350
346 60 42
347 59 615
348 59 33
349 59 579
350 59 175
351 58 998
352 58 282
353 57 27
354 57 43
355 57 275
356 56 672
357 56 917
358 56 212
359 56 502
360 55 346
361 55 424
362 55 542
363 54 426
364 54 382
365 54 308
366 54 573
367 53 48
368 53 502
369 53 864
370 52 747
371 52 634
372 52 406
373 52 378
374 52 574
375 52 448
376 52 746
377 52 522
378 51 562
379 50 93
380 50 155
381 50 232
382 49 181
383 49 874
384 49 450
385 49 146
386 49 352
387 48 691
388 48 111
389 48 809
390 48 453
391 47 319
392 47 663
393 47 115
394 46 988
395 45 654
396 45 990
397 45 184
398 45 329
399 44 885
400 44 509
401 43 75
402 43 126
403 43 270
404 43 583
405 43 711
406 42 158
407 42 541
408 42 656
409 42 669
410 41 107
411 41 377
412 41 914
413 41 718
414 40 550
415 40 326
416 39 571
417 39 797
418 39 259
419 39 893
420 39 967
421 39 907
422 39 625
423 39 791
424 39 243
425 38 311
426 38 528
427 38 944
428 38 193
429 38 319
430 38 622
431 37 485
432 37 148
433 36 55
434 36 494
435 36 938
436 36 900
437 36 502
438 36 680
439 36 252
440 35 270
441 35 221
442 34 481
443 34 346
444 33 75
445 33 219
446 33 585
447 33 416
448 32 497
449 32 840
450 32 627
451 32 113
452 32 967
453 32 237
454 32 148
455 32 559
456 32 462
457 32 988
458 32 370
459 31 820
460 31 234
461 31 312
462 31 658
463 31 493
464 31 889
465 30 524
466 29 856
467 29 605
468 29 520
469 29 607
470 29 34
471 29 483
472 29 107
473 28 399
474 28 671
475 28 933
476 27 679
477 26 697
478 25 426
479 25 709
480 25 234
481 24 243
482 24 366
483 23 294
484 23 50
485 23 672
486 22 882
487 22 212
488 22 42
489 22 184
490 22 575
491 21 870
492 21 701
493 21 855
494 21 854
495 20 992
496 20 243
497 20 803
498 20 815
499 20 771
500 20 43
